(set-info :source |printed by MathSAT|)
(declare-fun nB0 () Int)
(declare-fun call__main_.call_controleur.diff () Int)
(declare-fun call__main_.retard1 () Bool)
(declare-fun call__main_.call_controleur2.diff () Int)
(declare-fun call_Sofar.flby () Bool)
(declare-fun call__main_.call_controleur.flby () Bool)
(declare-fun retard0 () Bool)
(declare-fun nS () Int)
(declare-fun call__main_.call_controleur.flby2 () Bool)
(declare-fun call__main_.call_hypothese.c () Int)
(declare-fun nB1 () Int)
(declare-fun call__main_._H0_ () Bool)
(declare-fun diff1 () Int)
(declare-fun diff0 () Int)
(declare-fun call__main_.flby3 () Int)
(declare-fun call__main_.diff1 () Int)
(declare-fun flby () Bool)
(declare-fun call__main_.call_hypothese2.flby () Bool)
(declare-fun call__main_.flby () Int)
(declare-fun ast () Bool)
(declare-fun call__main_.retard0 () Bool)
(declare-fun call__main_.call_controleur2.flby2 () Bool)
(declare-fun call__main_.nB1 () Int)
(declare-fun call__main_.avance1 () Bool)
(declare-fun call__main_.call_controleur2.avance () Bool)
(declare-fun call__main_.avance0 () Bool)
(declare-fun avance1 () Bool)
(declare-fun avance0 () Bool)
(declare-fun call__main_.nB0 () Int)
(declare-fun call_Sofar.Sofar () Bool)
(declare-fun retard1 () Bool)
(declare-fun call__main_.call_controleur.avance () Bool)
(declare-fun call__main_.call_controleur2.retard () Bool)
(declare-fun call__main_.call_hypothese2.c () Int)
(declare-fun call__main_.call_hypothese2.flby2 () Int)
(declare-fun call__main_.call_controleur2.flby () Bool)
(declare-fun call__main_.call_controleur.retard () Bool)
(declare-fun call__main_.flby2 () Int)
(declare-fun call__main_.ast () Bool)
(declare-fun call__main_.call_hypothese.ok () Bool)
(declare-fun call__main_.call_hypothese.flby () Bool)
(declare-fun call__main_.nS () Int)
(declare-fun call__main_._H1_ () Bool)
(declare-fun call__main_.call_hypothese2.ok () Bool)
(declare-fun call__main_.call_hypothese.flby2 () Int)
(declare-fun _OK_ () Bool)
(declare-fun call__main_.diff0 () Int)
(define-fun .def_623 () Bool (= ast call_Sofar.flby))
(define-fun .def_621 () Bool (not call__main_.call_controleur2.flby2))
(define-fun .def_619 () Bool (not call__main_.call_controleur2.flby))
(define-fun .def_617 () Bool (not call__main_.call_controleur.flby2))
(define-fun .def_615 () Bool (not call__main_.call_controleur.flby))
(define-fun .def_613 () Bool (= call__main_.call_hypothese2.flby2 0))
(define-fun .def_610 () Bool (= call__main_.call_hypothese.flby2 0))
(define-fun .def_607 () Bool (= call__main_.flby3 0))
(define-fun .def_605 () Bool (= call__main_.flby2 0))
(define-fun .def_603 () Bool (= call__main_.flby 0))
(define-fun .def_604 () Bool (and flby .def_603))
(define-fun .def_606 () Bool (and .def_604 .def_605))
(define-fun .def_608 () Bool (and .def_606 .def_607))
(define-fun .def_609 () Bool (and call__main_.call_hypothese.flby .def_608))
(define-fun .def_611 () Bool (and .def_609 .def_610))
(define-fun .def_612 () Bool (and call__main_.call_hypothese2.flby .def_611))
(define-fun .def_614 () Bool (and .def_612 .def_613))
(define-fun .def_616 () Bool (and .def_614 .def_615))
(define-fun .def_618 () Bool (and .def_616 .def_617))
(define-fun .def_620 () Bool (and .def_618 .def_619))
(define-fun .def_622 () Bool (and .def_620 .def_621))
(define-fun .def_624 () Bool (and .def_622 .def_623))
(define-fun .def_601 () Bool (= call_Sofar.Sofar call_Sofar.flby))
(define-fun .def_597 () Bool (= call__main_.call_controleur2.retard call__main_.call_controleur2.flby2))
(define-fun .def_594 () Bool (= call__main_.call_controleur2.avance call__main_.call_controleur2.flby))
(define-fun .def_588 () Int (* (- 1) call__main_.call_controleur2.diff))
(define-fun .def_574 () Int (* (- 1) call__main_.nS))
(define-fun .def_589 () Int (+ .def_574 .def_588))
(define-fun .def_590 () Int (+ call__main_.nB1 .def_589))
(define-fun .def_591 () Bool (= .def_590 0))
(define-fun .def_583 () Bool (= call__main_.call_controleur.retard call__main_.call_controleur.flby2))
(define-fun .def_580 () Bool (= call__main_.call_controleur.avance call__main_.call_controleur.flby))
(define-fun .def_573 () Int (* (- 1) call__main_.call_controleur.diff))
(define-fun .def_575 () Int (+ .def_574 .def_573))
(define-fun .def_576 () Int (+ call__main_.nB0 .def_575))
(define-fun .def_577 () Bool (= .def_576 0))
(define-fun .def_568 () Bool (= call__main_.call_hypothese2.c call__main_.call_hypothese2.flby2))
(define-fun .def_564 () Bool (= call__main_.call_hypothese2.ok call__main_.call_hypothese2.flby))
(define-fun .def_561 () Bool (= call__main_.call_hypothese.c call__main_.call_hypothese.flby2))
(define-fun .def_557 () Bool (= call__main_.call_hypothese.ok call__main_.call_hypothese.flby))
(define-fun .def_554 () Bool (= call__main_._H1_ call__main_.call_hypothese2.ok))
(define-fun .def_551 () Bool (= call__main_._H0_ call__main_.call_hypothese.ok))
(define-fun .def_548 () Bool (= call__main_.retard1 call__main_.call_controleur2.retard))
(define-fun .def_545 () Bool (= call__main_.retard0 call__main_.call_controleur.retard))
(define-fun .def_542 () Bool (= call__main_.avance1 call__main_.call_controleur2.avance))
(define-fun .def_539 () Bool (= call__main_.avance0 call__main_.call_controleur.avance))
(define-fun .def_536 () Bool (= call__main_.diff1 call__main_.call_controleur2.diff))
(define-fun .def_533 () Bool (= call__main_.diff0 call__main_.call_controleur.diff))
(define-fun .def_530 () Bool (= call__main_.nS call__main_.flby3))
(define-fun .def_527 () Bool (= call__main_.nB1 call__main_.flby2))
(define-fun .def_524 () Bool (= call__main_.nB0 call__main_.flby))
(define-fun .def_520 () Bool (and call__main_._H0_ call__main_._H1_))
(define-fun .def_521 () Bool (= call__main_.ast .def_520))
(define-fun .def_516 () Bool (= call__main_.ast ast))
(define-fun .def_512 () Bool (= retard1 call__main_.retard1))
(define-fun .def_508 () Bool (= retard0 call__main_.retard0))
(define-fun .def_504 () Bool (= avance1 call__main_.avance1))
(define-fun .def_500 () Bool (= avance0 call__main_.avance0))
(define-fun .def_496 () Bool (= diff1 call__main_.diff1))
(define-fun .def_492 () Bool (= diff0 call__main_.diff0))
(define-fun .def_488 () Bool (= nS call__main_.nS))
(define-fun .def_484 () Bool (= nB1 call__main_.nB1))
(define-fun .def_480 () Bool (= nB0 call__main_.nB0))
(define-fun .def_477 () Bool (= _OK_ flby))
(define-fun .def_481 () Bool (and .def_477 .def_480))
(define-fun .def_485 () Bool (and .def_481 .def_484))
(define-fun .def_489 () Bool (and .def_485 .def_488))
(define-fun .def_493 () Bool (and .def_489 .def_492))
(define-fun .def_497 () Bool (and .def_493 .def_496))
(define-fun .def_501 () Bool (and .def_497 .def_500))
(define-fun .def_505 () Bool (and .def_501 .def_504))
(define-fun .def_509 () Bool (and .def_505 .def_508))
(define-fun .def_513 () Bool (and .def_509 .def_512))
(define-fun .def_517 () Bool (and .def_513 .def_516))
(define-fun .def_522 () Bool (and .def_517 .def_521))
(define-fun .def_525 () Bool (and .def_522 .def_524))
(define-fun .def_528 () Bool (and .def_525 .def_527))
(define-fun .def_531 () Bool (and .def_528 .def_530))
(define-fun .def_534 () Bool (and .def_531 .def_533))
(define-fun .def_537 () Bool (and .def_534 .def_536))
(define-fun .def_540 () Bool (and .def_537 .def_539))
(define-fun .def_543 () Bool (and .def_540 .def_542))
(define-fun .def_546 () Bool (and .def_543 .def_545))
(define-fun .def_549 () Bool (and .def_546 .def_548))
(define-fun .def_552 () Bool (and .def_549 .def_551))
(define-fun .def_555 () Bool (and .def_552 .def_554))
(define-fun .def_558 () Bool (and .def_555 .def_557))
(define-fun .def_562 () Bool (and .def_558 .def_561))
(define-fun .def_565 () Bool (and .def_562 .def_564))
(define-fun .def_569 () Bool (and .def_565 .def_568))
(define-fun .def_578 () Bool (and .def_569 .def_577))
(define-fun .def_581 () Bool (and .def_578 .def_580))
(define-fun .def_584 () Bool (and .def_581 .def_583))
(define-fun .def_592 () Bool (and .def_584 .def_591))
(define-fun .def_595 () Bool (and .def_592 .def_594))
(define-fun .def_598 () Bool (and .def_595 .def_597))
(define-fun .def_602 () Bool (and .def_598 .def_601))
(define-fun .def_625 () Bool (and .def_602 .def_624))
(assert .def_625)
